n= 4
m= 15
1350
1600
1800
2100
608	40	10
668	40	10
708	40	10
728	40	10
748	40	10
788	40	10
828	30	10
868	30	10
888	30	10
908	30	10
928	30	10
968	30	10
978	300	10
988	30	10
1058	30	10
